2.2 - Investigação Operacional/tp2/100893.txt
22
57

1 2 1 1
1 3 4 1
1 4 9 1
1 5 2 1
1 6 10 1
1 7 11 1
1 8 15 1
1 9 9 1
1 10 9 1
1 11 6 1
1 22 0 10

12 4 0 1
12 5 5 1
12 6 7 1
12 7 10 1
12 8 13 1
12 9 7 1
12 10 5 1
12 11 1 1

13 7 8 1
13 9 8 1
13 10 8 1
13 11 8 1

14 5 5 1 
14 7 10 1
14 8 13 1
14 9 7 1
14 10 5 1
14 11 5 1

15 9 6 1
15 10 0 1
15 11 6 1

16 9 5 1
16 10 6 1
16 11 7 1

17 9 5 1
17 11 6 1

2 12 0 1 
3 13 0 1
4 14 0 1
5 15 0 1
6 16 0 1
7 17 0 1 
8 18 0 1
9 19 0 1
10 20 0 1
11 21 0 1 

12 22 1 1
13 22 4 1
14 22 9 1 
15 22 2 1
16 22 10 1
17 22 11 1
18 22 15 1
19 22 9 1
20 22 9 1
21 22 6 1

10 
-1 
-1 
-1 
-1 
-1 
-1 
-1 
-1 
-1 
-1 
1 
1 
1 
1 
1 
1 
1 
1 
1
1 
-10
 